Problem:    
Rows:       42
Columns:    34 (25 integer, 0 binary)
Non-zeros:  91
Status:     INTEGER OPTIMAL
Objective:  obj = 0 (MINimum)

   No.   Row name        Activity     Lower bound   Upper bound
------ ------------    ------------- ------------- -------------
     1 c0                          1             1             = 
     2 c1                          1             1             = 
     3 c2                          1             1             = 
     4 c3                          1             1             = 
     5 c4                          1             1             = 
     6 c5                          1             1             = 
     7 c6                          1             1             = 
     8 c7                          1             1             = 
     9 c8                          1             1             = 
    10 c9                          1             1               
    11 c10                         1             1               
    12 c11                         1             1               
    13 c12                         1             1               
    14 c13                         1             1               
    15 c14                         2             1               
    16 c15                         1             1               
    17 c16                         1             1               
    18 i0                          0             0               
    19 i1                          1             0               
    20 i2                          0             0               
    21 i3                          1             0               
    22 i4                          0             0               
    23 i5                          0             0               
    24 i6                          1             0               
    25 i7                          0             0               
    26 i8                          0             0               
    27 i9                          1             0               
    28 i10                         0             0               
    29 i11                         1             0               
    30 i12                         0             0               
    31 i13                         0             0               
    32 i14                         0             0               
    33 i15                         1             0               
    34 i16                         0             0               
    35 i17                         0             0               
    36 i18                         0             0               
    37 i19                         1             0               
    38 i20                         0             0               
    39 i21                         0             0               
    40 i22                         1             0               
    41 i23                         0             0               
    42 i24                         1             0               

   No. Column name       Activity     Lower bound   Upper bound
------ ------------    ------------- ------------- -------------
     1 x1                          0             0               
     2 x4                          0             0               
     3 x2                          0             0               
     4 x5                          0             0               
     5 x8                          0             0               
     6 x3                          0             0               
     7 x6                          0             0               
     8 x7                          0             0               
     9 x9                          0             0               
    10 x11          *              0             0               
    11 x12          *              1             0               
    12 x42          *              0             0               
    13 x43          *              1             0               
    14 x21          *              0             0               
    15 x22          *              0             0               
    16 x23          *              1             0               
    17 x52          *              0             0               
    18 x53          *              0             0               
    19 x54          *              1             0               
    20 x83          *              0             0               
    21 x84          *              1             0               
    22 x31          *              0             0               
    23 x32          *              0             0               
    24 x33          *              0             0               
    25 x34          *              1             0               
    26 x62          *              0             0               
    27 x63          *              0             0               
    28 x64          *              0             0               
    29 x65          *              1             0               
    30 x73          *              0             0               
    31 x74          *              0             0               
    32 x75          *              1             0               
    33 x94          *              0             0               
    34 x95          *              1             0               

Integer feasibility conditions:

KKT.PE: max.abs.err = 0.00e+00 on row 0
        max.rel.err = 0.00e+00 on row 0
        High quality

KKT.PB: max.abs.err = 0.00e+00 on row 0
        max.rel.err = 0.00e+00 on row 0
        High quality

End of output
